n_res = 4;
rc = [ 21, 16, 16, 18 ];
n_tasks = 30;
d = [ 10, 3, 4, 9, 6, 4, 7, 2, 2, 4, 9, 7, 2, 3, 1, 1, 6, 6, 1, 2, 3, 8, 2, 3, 9, 5, 10, 9, 10, 5 ];
rr = [| 0, 10, 0, 7, 0, 10, 10, 5, 2, 6, 0, 5, 4, 7, 0, 5, 0, 6, 0, 0, 0, 0, 0, 0, 0, 4, 0, 3, 0, 4
      | 0, 8, 0, 6, 7, 0, 3, 8, 0, 2, 6, 0, 5, 0, 0, 0, 0, 7, 0, 10, 6, 5, 8, 7, 0, 0, 7, 0, 0, 0
      | 0, 10, 0, 0, 9, 2, 0, 0, 4, 7, 1, 0, 0, 9, 5, 1, 0, 0, 2, 0, 0, 3, 7, 0, 0, 9, 0, 0, 0, 9
      | 9, 6, 1, 0, 0, 6, 0, 5, 7, 0, 8, 0, 0, 0, 4, 4, 6, 10, 0, 10, 0, 0, 0, 5, 9, 3, 9, 0, 4, 0 |];
suc = [ { 2 }, 
        { 1 }, 
        { 4 }, 
        { 3 }, 
        { 6 }, 
        { 5 }, 
        { 8 }, 
        { 7 }, 
        { 10 }, 
        { 9 }, 
        { 12 }, 
        { 11 }, 
        { 14 }, 
        { 13 }, 
        { 16 }, 
        { 15 }, 
        { 18 }, 
        { 17 }, 
        { 20 }, 
        { 19 }, 
        { 22 }, 
        { 21 }, 
        { 24 }, 
        { 23 }, 
        { 26 }, 
        { 25 }, 
        { 28 }, 
        { 27 }, 
        { 30 }, 
        { 29 }]; 
